914
6681
1679
9670
8856
5571
9467
2940
9441
7748
1177
4342
5389
4557
8457
8022
5603
8792
4971
2139
653
8935
6629
6645
6086
8714
2683
7977
1018
9371
5373
4314
5072
5980
2896
7958
8800
9492
8587
4049
5673
9407
6482
2442
6451
2931
777
1515
7731
8989
9680
